study/exp-portion-fine-grain-4v100/run-logs-backup-12-06/samgraph_cache_graphsage_kKHop2_papers100M-undir_coll_cache_asymm_link_2_cache_rate_018_batch_size_8000_concurrent_impl_MPS.log
config:eval_tsp="2022-12-06 14:12:25"
config:arch=arch5
config:num_train_worker=3
config:num_sample_worker=1
config:sample_type=khop2
config:root_path=/nvme/graph-learning-copy/samgraph/
config:dataset=papers100M-undir
config:pipeline=False
config:cache_policy=coll_cache_asymm_link
config:cache_percentage=0.18
config:num_epoch=4
config:batch_size=8000
config:num_hidden=256
config:max_sampling_jobs=1
config:max_copying_jobs=1
config:barriered_epoch=1
config:presample_epoch=2
config:omp_thread_num=13
config:unsupervised=False
config:amp=True
config:rolling=0
config:fanout=[25, 10]
config:lr=0.003
config:dropout=0.5
config:single_gpu=False
config:max_num_step=100000
config:validate_configs=False
config:report_acc=0
config:dataset_path=/nvme/graph-learning-copy/samgraph/papers100M-undir
config:torch_thread_num=13
config:train_workers=['cuda:0', 'cuda:1', 'cuda:2']
config:sample_workers=['cuda:3']
config:num_fanout=2
config:num_layer=2
config:_run_mode=RunMode.FGNN
config:_log_level=warn
config:_profile_level=3
config:_empty_feat=0
config:_arch=5
config:_sample_type=5
config:_cache_policy=13
test_result:init:input_scale_factor=1.1
0 :  {link #0 : 1}, {link #1 : 2},
1 :  {link #0 : 2}, {link #1 : 0},
2 :  {link #0 : 0}, {link #1 : 1},
0 :  {link #0 : 1}, {link #1 : 2},
1 :  {link #0 : 2}, {link #1 : 0},
2 :  {link #0 : 0}, {link #1 : 1},
0 :  {link #0 : 1}, {link #1 : 2},
1 :  {link #0 : 2}, {link #1 : 0},
2 :  {link #0 : 0}, {link #1 : 1},
Set parameter WLSAccessID
Set parameter WLSSecret
Set parameter LicenseID
Set parameter TimeLimit to value 200
Set parameter MIPGap to value 0.05
Set parameter GomoryPasses to value 0
Set parameter Aggregate to value 0
Set parameter LogFile to value "cppsolver.log"
Set parameter Threads to value 26
Academic license - for non-commercial use only - registered to xiaoniu.sxn@sjtu.edu.cn
Gurobi Optimizer version 9.5.1 build v9.5.1rc2 (linux64)
Thread count: 40 physical cores, 80 logical processors, using up to 26 threads
Academic license - for non-commercial use only - registered to xiaoniu.sxn@sjtu.edu.cn
Optimize a model with 21372 rows, 10174 columns and 64086 nonzeros
Model fingerprint: 0x621589c3
Variable types: 4 continuous, 10170 integer (10170 binary)
Coefficient statistics:
  Matrix range     [2e-04, 4e+02]
  Objective range  [1e+00, 1e+00]
  Bounds range     [1e+00, 1e+00]
  RHS range        [1e+00, 2e+02]
Found heuristic solution: objective 2.000000e+09
Presolve removed 12206 rows and 0 columns
Presolve time: 0.09s
Presolved: 9166 rows, 10174 columns, 37642 nonzeros
Found heuristic solution: objective 7647.8153666
Variable types: 4 continuous, 10170 integer (10170 binary)

Root relaxation: objective 2.967140e+02, 6410 iterations, 0.54 seconds (0.55 work units)

    Nodes    |    Current Node    |     Objective Bounds      |     Work
 Expl Unexpl |  Obj  Depth IntInf | Incumbent    BestBd   Gap | It/Node Time

     0     0  296.71401    0    8 7647.81537  296.71401  96.1%     -    0s
H    0     0                     298.7686834  296.71401  0.69%     -    0s

Explored 1 nodes (6410 simplex iterations) in 0.68 seconds (0.66 work units)
Thread count was 26 (of 80 available processors)

Solution count 3: 298.769 7647.82 2e+09 

Optimal solution found (tolerance 5.00e-02)
Best objective 2.987686833682e+02, best bound 2.967140083025e+02, gap 0.6877%
coll_cache:optimal_local_rate=0.985265,0.986021,0.986596,
coll_cache:optimal_remote_rate=0.00199604,0.0012404,0.000665347,
coll_cache:optimal_cpu_rate=0.0127388,0.0127388,0.0127388,
z=298.769
test_result:init:feat_nbytes=56862697472
test_result:init:cache_nbytes=10112002560
test_result:init:feat_nbytes=56862697472
test_result:init:cache_nbytes=10225726976
test_result:init:feat_nbytes=56862697472
test_result:init:cache_nbytes=10119719424
0 :  {link #0 : 1}, {link #1 : 2},
1 :  {link #0 : 2}, {link #1 : 0},
2 :  {link #0 : 0}, {link #1 : 1},
0 :  {link #0 : 1}, {link #1 : 2},
1 :  {link #0 : 2}, {link #1 : 0},
2 :  {link #0 : 0}, {link #1 : 1},
0 :  {link #0 : 1}, {link #1 : 2},
1 :  {link #0 : 2}, {link #1 : 0},
2 :  {link #0 : 0}, {link #1 : 1},
Set parameter WLSAccessID
Set parameter WLSSecret
Set parameter LicenseID
Set parameter TimeLimit to value 200
Set parameter MIPGap to value 0.05
Set parameter GomoryPasses to value 0
Set parameter Aggregate to value 0
Set parameter LogFile to value "cppsolver.log"
Set parameter Threads to value 26
Academic license - for non-commercial use only - registered to xiaoniu.sxn@sjtu.edu.cn
Gurobi Optimizer version 9.5.1 build v9.5.1rc2 (linux64)
Thread count: 40 physical cores, 80 logical processors, using up to 26 threads
Academic license - for non-commercial use only - registered to xiaoniu.sxn@sjtu.edu.cn
Optimize a model with 21372 rows, 10174 columns and 64086 nonzeros
Model fingerprint: 0x6cdd67d3
Variable types: 4 continuous, 10170 integer (10170 binary)
Coefficient statistics:
  Matrix range     [2e-04, 4e+02]
  Objective range  [1e+00, 1e+00]
  Bounds range     [1e+00, 1e+00]
  RHS range        [1e+00, 2e+02]
Found heuristic solution: objective 2.000000e+09
Presolve removed 12206 rows and 0 columns
Presolve time: 0.08s
Presolved: 9166 rows, 10174 columns, 37642 nonzeros
Found heuristic solution: objective 6999.8684275
Variable types: 4 continuous, 10170 integer (10170 binary)

Root relaxation: objective 2.967140e+02, 7510 iterations, 0.62 seconds (0.70 work units)

    Nodes    |    Current Node    |     Objective Bounds      |     Work
 Expl Unexpl |  Obj  Depth IntInf | Incumbent    BestBd   Gap | It/Node Time

     0     0  296.71401    0    8 6999.86843  296.71401  95.8%     -    0s
H    0     0                     432.0780995  296.71401  31.3%     -    0s
H    0     0                     296.7286179  296.71401  0.00%     -    0s

Explored 1 nodes (7510 simplex iterations) in 0.80 seconds (0.85 work units)
Thread count was 26 (of 80 available processors)

Solution count 4: 296.729 432.078 6999.87 2e+09 

Optimal solution found (tolerance 5.00e-02)
Best objective 2.967286179098e+02, best bound 2.967140083025e+02, gap 0.0049%
coll_cache:optimal_local_rate=0.987145,0.987145,0.987145,
coll_cache:optimal_remote_rate=1.42109e-14,1.42109e-14,1.42109e-14,
coll_cache:optimal_cpu_rate=0.0128546,0.0128546,0.0128546,
z=296.729
test_result:init:cache_nbytes=0
test_result:init:cache_nbytes=0
test_result:init:cache_nbytes=0
[Train  Worker 2/3] Started with PID 991389(Tesla V100-SXM2-16GB)
[Train  Worker 2] run train for 4 epochs with 153 steps
[Train  Worker 2] Avg Epoch Time 0.6862 | Train Total Time(Profiler) 0.4216 | Copy Time 0.2598
[Train  Worker 0/3] Started with PID 991385(Tesla V100-SXM2-16GB)
[Train  Worker 0] run train for 4 epochs with 153 steps
Epoch 00000 | Epoch Time 1.8303 | Total Train Time(Profiler) 1.5535 | Copy Time 0.2718
Epoch 00001 | Epoch Time 0.6983 | Total Train Time(Profiler) 0.4365 | Copy Time 0.2574
Epoch 00002 | Epoch Time 0.6816 | Total Train Time(Profiler) 0.4182 | Copy Time 0.2585
Epoch 00003 | Epoch Time 0.6787 | Total Train Time(Profiler) 0.4153 | Copy Time 0.2585
[Train  Worker 0] Avg Epoch Time 0.6862 | Train Total Time(Profiler) 0.4233 | Copy Time 0.2581
[Train  Worker 1/3] Started with PID 991387(Tesla V100-SXM2-16GB)
[Train  Worker 1] run train for 4 epochs with 153 steps
[Train  Worker 1] Avg Epoch Time 0.6862 | Train Total Time(Profiler) 0.4217 | Copy Time 0.2595
    [Step(average) Profiler Level 1 E3 S152]
        L1  sample           0.005590 | send           0.001402
        L1  recv             0.000000 | copy           0.000000 | convert time 0.000000 | train  0.000000
        L1  feature nbytes 0.00 Bytes | label nbytes 0.00 Bytes
        L1  id nbytes      0.00 Bytes | graph nbytes 0.00 Bytes
        L1  miss nbytes    0.00 Bytes | remote nbytes 0.00 Bytes
        L1  num nodes         1100946 | num samples     1712911
    [Step(average) Profiler Level 2 E3 S152]
        L2  shuffle     0.000255 | core sample  0.002064 | id remap        0.003172
        L2  graph copy  0.000000 | id copy      0.000000 | cache feat copy 0.000000
        L2  last layer sample time 0.000318 | size 72444.675381
    [Step(average) Profiler Level 3 E3 S152]
        L3  khop sample coo  0.001744 | khop sort coo      0.000000 | khop count edge     0.000038 | khop compact edge 0.000244
        L3  walk sample coo  0.000000 | walk topk total    0.000000 | walk topk step1     0.000000 | walk topk step2   0.000000
        L3  walk topk step3  0.000000 | walk topk step4    0.000000 | walk topk step5     0.000000
        L3  walk topk step6  0.000000 | walk topk step7    0.000000
        L3  remap unique     0.000000 | remap populate     0.002639 | remap mapnode       0.000000 | remap mapedge     0.000533
        L3  cache get_index  0.000000 | cache copy_index   0.000000 | cache extract_miss  0.000000
        L3  cache copy_miss  0.000000 | cache combine_miss 0.000000 | cache combine cache 0.000000 | cache combine remote 0.000000
        L3  label extract  0.000000
    [Init Profiler Level 1]
        L1  init     5.0852 | sampler init    19.6106 | trainer init 0.0000
    [Init Profiler Level 2]
        L2  load ds         8.0067 | init queue          11.2193
        L2  presample       3.6639 | build interal ds     1.8032
        L2  build cache     0.0000
    [Init Profiler Level 3]
        L3  load dataset: mmap     5.0813 | copy         2.9253
        L3  dist queue: alloc      0.0017 | pin         11.2176 | push     0.0000
        L3  presample: init        0.2988
        L3  presample: sample      1.6999 | copy         0.1068
        L3  presample: count       0.9069 | sort         0.2729
        L3  presample: reset       0.0007 | get rank     0.0387
        L3  internal: cuda ctx     1.5528 | cuda stream     0.2459
[Sample Worker 0/1] Started with PID 991384(Tesla V100-SXM2-16GB)
[Sample Worker 0] run sample for 4 epochs with 153 steps
[Sample Worker 0] Avg Sample Total Time 1.0712 | Sampler Total Time(Profiler) 1.0697
test_result:sample_time=0.8552
test_result:get_cache_miss_index_time=0.0000
test_result:enqueue_samples_time=0.2145
test_result:epoch_time:sample_total=1.0712
[CUDA] cuda0: usage: 15.43 GB
[SAM] cuda0 data alloc        : 0.00 Bytes
[SAM] cuda0 workspace         : 1.22 GB
[SAM] cuda0 workspace reserve : 617.26 MB
[SAM] cuda0 total             : 1.22 GB
    [Step(average) Profiler Level 1 E3 S152]
        L1  sample           0.000000 | send           0.000000
        L1  recv             0.001559 | copy           0.005081 | convert time 0.000396 | train  0.007882
        L1  feature nbytes  537.57 MB | label nbytes   62.50 KB
        L1  id nbytes      0.00 Bytes | graph nbytes 0.00 Bytes
        L1  miss nbytes      14.05 MB | remote nbytes  650.53 KB
        L1  num nodes               0 | num samples           0
    [Step(average) Profiler Level 2 E3 S152]
        L2  shuffle     0.000000 | core sample  0.000000 | id remap        0.000000
        L2  graph copy  0.000003 | id copy      0.000000 | cache feat copy 0.003519
        L2  last layer sample time 0.000000 | size 0.000000
    [Step(average) Profiler Level 3 E3 S152]
        L3  khop sample coo  0.000000 | khop sort coo      0.000000 | khop count edge     0.000000 | khop compact edge 0.000000
        L3  walk sample coo  0.000000 | walk topk total    0.000000 | walk topk step1     0.000000 | walk topk step2   0.000000
        L3  walk topk step3  0.000000 | walk topk step4    0.000000 | walk topk step5     0.000000
        L3  walk topk step6  0.000000 | walk topk step7    0.000000
        L3  remap unique     0.000000 | remap populate     0.000000 | remap mapnode       0.000000 | remap mapedge     0.000000
        L3  cache get_index  0.000706 | cache copy_index   0.000000 | cache extract_miss  0.000000
        L3  cache copy_miss  0.000000 | cache combine_miss 0.001829 | cache combine cache 0.002601 | cache combine remote 0.000027
        L3  label extract  0.000174
    [Init Profiler Level 1]
        L1  init     5.0852 | sampler init     0.0000 | trainer init 71.0776
    [Init Profiler Level 2]
        L2  load ds         5.0813 | init queue          11.1756
        L2  presample       0.0000 | build interal ds     1.5223
        L2  build cache    58.3808
    [Init Profiler Level 3]
        L3  load dataset: mmap     5.0813 | copy         0.0000
        L3  dist queue: alloc      0.0017 | pin         11.1739 | push     0.0000
        L3  presample: init        0.0000
        L3  presample: sample      0.0000 | copy         0.0000
        L3  presample: count       0.0000 | sort         0.0000
        L3  presample: reset       0.0000 | get rank     0.0000
        L3  internal: cuda ctx     1.5222 | cuda stream     0.0000
|===========================================================================|
|                  PyTorch CUDA memory summary, device ID 0                 |
|---------------------------------------------------------------------------|
|            CUDA OOMs: 0            |        cudaMalloc retries: 0         |
|===========================================================================|
|        Metric         | Cur Usage  | Peak Usage | Tot Alloc  | Tot Freed  |
|---------------------------------------------------------------------------|
| Allocated memory      |   22851 KB |  402886 KB |  284811 MB |  284788 MB |
|       from large pool |   18179 KB |  399501 KB |  282698 MB |  282680 MB |
|       from small pool |    4672 KB |    7151 KB |    2112 MB |    2107 MB |
|---------------------------------------------------------------------------|
| Active memory         |   22851 KB |  402886 KB |  284811 MB |  284788 MB |
|       from large pool |   18179 KB |  399501 KB |  282698 MB |  282680 MB |
|       from small pool |    4672 KB |    7151 KB |    2112 MB |    2107 MB |
|---------------------------------------------------------------------------|
| GPU reserved memory   |  579584 KB |  579584 KB |  579584 KB |       0 B  |
|       from large pool |  569344 KB |  569344 KB |  569344 KB |       0 B  |
|       from small pool |   10240 KB |   10240 KB |   10240 KB |       0 B  |
|---------------------------------------------------------------------------|
| Non-releasable memory |   24252 KB |  368968 KB |  341222 MB |  341199 MB |
|       from large pool |   22781 KB |  367149 KB |  338817 MB |  338795 MB |
|       from small pool |    1471 KB |    3612 KB |    2405 MB |    2403 MB |
|---------------------------------------------------------------------------|
| Allocations           |      38    |      51    |   22680    |   22642    |
|       from large pool |       3    |      14    |    8976    |    8973    |
|       from small pool |      35    |      39    |   13704    |   13669    |
|---------------------------------------------------------------------------|
| Active allocs         |      39    |      51    |   22680    |   22641    |
|       from large pool |       3    |      14    |    8976    |    8973    |
|       from small pool |      36    |      39    |   13704    |   13668    |
|---------------------------------------------------------------------------|
| GPU reserved segments |      14    |      14    |      14    |       0    |
|       from large pool |       9    |       9    |       9    |       0    |
|       from small pool |       5    |       5    |       5    |       0    |
|---------------------------------------------------------------------------|
| Non-releasable allocs |      13    |      24    |   10689    |   10676    |
|       from large pool |       4    |      12    |    5098    |    5094    |
|       from small pool |       9    |      15    |    5591    |    5582    |
|---------------------------------------------------------------------------|
| Oversize allocations  |       0    |       0    |       0    |       0    |
|---------------------------------------------------------------------------|
| Oversize GPU segments |       0    |       0    |       0    |       0    |
|===========================================================================|

test_result:epoch_time:copy_time=0.2581
test_result:convert_time=0.0200
test_result:train_time=0.4034
test_result:epoch_time:train_total=0.4233
test_result:cache_percentage=0.1800
test_result:cache_hit_rate=1.0000
test_result:run_time=8.2025
